14980
1 1 1 1 1 1 1 0 1 0 1 1 1 1 1 1 0 1 1 1
19 3 15 4 10 12 0 11 4 6 19 3 15 19 11 19 3 11 13 2 13 3 11 5 1 1 18 5 8 19 11 18 14 17 17 13 3 12 12 1 11 18 15 19 11 19 11 15 6 13 8 3 14 8 17 19 3 15 5 10 17 3 15 3 10 19 3 15 19 2 5 18 13 19 0 19 3 15 2 14 1 18 14 8 19 6 18 14 19 12 1 18 1 0 0 13 3 12 8 17